(set-logic ALL)
(declare-fun var0 () String)
(assert (str.in_re var0 (re.++ (re.* (re.+ (str.to_re "00"))) (re.++ (re.+ (re.union (str.to_re "11") (str.to_re "22"))) (re.++ (re.* (re.* (str.to_re "333"))) (re.++ (re.union (re.* (str.to_re "444")) (re.* (str.to_re "5"))) (re.++ (re.* (re.union (str.to_re "6") (str.to_re "77"))) (re.++ (re.* (re.+ (str.to_re "8"))) (re.++ (re.+ (re.union (str.to_re "99") (str.to_re "aa"))) (re.++ (re.+ (re.* (str.to_re "bb"))) (re.++ (re.union (re.* (str.to_re "ccc")) (re.* (str.to_re "d"))) (re.++ (re.+ (re.* (str.to_re "e"))) (re.++ (re.+ (re.* (str.to_re "fff"))) (re.++ (re.union (re.+ (str.to_re "g")) (re.+ (str.to_re "h"))) (re.++ (re.+ (re.* (str.to_re "iii"))) (re.++ (re.* (re.+ (str.to_re "jjj"))) (re.++ (re.union (re.+ (str.to_re "kkk")) (re.+ (str.to_re "l"))) (re.++ (re.+ (re.+ (str.to_re "mmm"))) (re.++ (re.* (re.union (str.to_re "nn") (str.to_re "ooo"))) (re.++ (re.union (re.* (str.to_re "ppp")) (re.* (str.to_re "qq"))) (re.++ (re.+ (re.union (str.to_re "rrr") (str.to_re "sss"))) (re.++ (re.* (re.* (str.to_re "t"))) (re.++ (re.+ (re.* (str.to_re "uuu"))) (re.++ (re.* (re.union (str.to_re "vvv") (str.to_re "www"))) (re.++ (re.+ (re.+ (str.to_re "xxx"))) (re.++ (re.+ (re.union (str.to_re "y") (str.to_re "zz"))) (re.++ (re.* (re.union (str.to_re "AAA") (str.to_re "BBB"))) (re.++ (re.union (re.+ (str.to_re "CC")) (re.+ (str.to_re "DD"))) (re.++ (re.+ (re.+ (str.to_re "EE"))) (re.++ (re.union (re.* (str.to_re "FFF")) (re.* (str.to_re "GG"))) (re.++ (re.* (re.* (str.to_re "H"))) (re.++ (re.* (re.* (str.to_re "III"))) (re.++ (re.union (re.union (str.to_re "JJ") (str.to_re "KKK")) (re.union (str.to_re "LL") (str.to_re "MM"))) (re.++ (re.union (re.union (str.to_re "NN") (str.to_re "O")) (re.union (str.to_re "PPP") (str.to_re "QQ"))) (re.++ (re.union (re.+ (str.to_re "RRR")) (re.+ (str.to_re "SSS"))) (re.++ (re.* (re.+ (str.to_re "TTT"))) (re.++ (re.* (re.+ (str.to_re "UUU"))) (re.++ (re.union (re.union (str.to_re "VV") (str.to_re "WWW")) (re.union (str.to_re "X") (str.to_re "Y"))) (re.++ (re.union (re.* (str.to_re "ZZZ")) (re.* (str.to_re "!!!"))) (re.++ (re.* (re.* (str.to_re """"""))) (re.++ (re.union (re.+ (str.to_re "#")) (re.+ (str.to_re "$$"))) (re.++ (re.* (re.+ (str.to_re "%"))) (re.++ (re.* (re.+ (str.to_re "&&"))) (re.++ (re.+ (re.* (str.to_re "'"))) (re.++ (re.union (re.union (str.to_re "(((") (str.to_re ")))")) (re.union (str.to_re "**") (str.to_re "+++"))) (re.++ (re.+ (re.* (str.to_re ",,"))) (re.++ (re.* (re.+ (str.to_re "--"))) (re.++ (re.union (re.union (str.to_re ".") (str.to_re "//")) (re.union (str.to_re ":") (str.to_re ";;;"))) (re.++ (re.+ (re.union (str.to_re "<") (str.to_re "=="))) (re.++ (re.* (re.union (str.to_re ">") (str.to_re "?"))) (re.++ (re.* (re.+ (str.to_re "@@"))) (re.++ (re.union (re.* (str.to_re "[[")) (re.* (str.to_re "\\\\"))) (re.++ (re.union (re.* (str.to_re "]]")) (re.* (str.to_re "^^"))) (re.++ (re.union (re.* (str.to_re "___")) (re.* (str.to_re "`"))) (re.++ (re.+ (re.* (str.to_re "{{"))) (re.++ (re.* (re.union (str.to_re "|||") (str.to_re "}}"))) (re.++ (re.union (re.union (str.to_re "~~") (str.to_re "000")) (re.union (str.to_re "11") (str.to_re "2"))) (re.++ (re.* (re.union (str.to_re "333") (str.to_re "444"))) (re.++ (re.+ (re.union (str.to_re "555") (str.to_re "6"))) (re.++ (re.* (re.* (str.to_re "777"))) (re.++ (re.union (re.union (str.to_re "888") (str.to_re "99")) (re.union (str.to_re "aaa") (str.to_re "bbb"))) (re.++ (re.* (re.+ (str.to_re "ccc"))) (re.++ (re.union (re.* (str.to_re "dd")) (re.* (str.to_re "eee"))) (re.++ (re.+ (re.* (str.to_re "ff"))) (re.++ (re.union (re.+ (str.to_re "gg")) (re.+ (str.to_re "hhh"))) (re.++ (re.+ (re.union (str.to_re "i") (str.to_re "jjj"))) (re.++ (re.+ (re.union (str.to_re "kk") (str.to_re "ll"))) (re.++ (re.+ (re.union (str.to_re "mm") (str.to_re "nnn"))) (re.++ (re.+ (re.union (str.to_re "o") (str.to_re "pp"))) (re.++ (re.union (re.* (str.to_re "q")) (re.* (str.to_re "rr"))) (re.++ (re.+ (re.* (str.to_re "ss"))) (re.++ (re.+ (re.* (str.to_re "tt"))) (re.++ (re.union (re.union (str.to_re "u") (str.to_re "v")) (re.union (str.to_re "ww") (str.to_re "xxx"))) (re.++ (re.+ (re.* (str.to_re "yyy"))) (re.++ (re.* (re.+ (str.to_re "zzz"))) (re.++ (re.* (re.+ (str.to_re "AAA"))) (re.++ (re.* (re.union (str.to_re "B") (str.to_re "C"))) (re.++ (re.* (re.* (str.to_re "DDD"))) (re.++ (re.* (re.+ (str.to_re "E"))) (re.++ (re.+ (re.union (str.to_re "FF") (str.to_re "G"))) (re.++ (re.union (re.union (str.to_re "H") (str.to_re "I")) (re.union (str.to_re "J") (str.to_re "KK"))) (re.++ (re.union (re.* (str.to_re "LL")) (re.* (str.to_re "MM"))) (re.++ (re.* (re.+ (str.to_re "NN"))) (re.++ (re.+ (re.union (str.to_re "OO") (str.to_re "P"))) (re.++ (re.+ (re.+ (str.to_re "QQQ"))) (re.++ (re.* (re.+ (str.to_re "RRR"))) (re.++ (re.union (re.* (str.to_re "SSS")) (re.* (str.to_re "TTT"))) (re.++ (re.+ (re.union (str.to_re "U") (str.to_re "V"))) (re.++ (re.+ (re.* (str.to_re "WWW"))) (re.++ (re.union (re.+ (str.to_re "XXX")) (re.+ (str.to_re "YY"))) (re.++ (re.* (re.* (str.to_re "Z"))) (re.++ (re.+ (re.union (str.to_re "!!") (str.to_re """"""))) (re.++ (re.+ (re.+ (str.to_re "##"))) (re.++ (re.* (re.* (str.to_re "$"))) (re.++ (re.+ (re.+ (str.to_re "%%%"))) (re.++ (re.* (re.union (str.to_re "&") (str.to_re "'"))) (re.++ (re.* (re.* (str.to_re "((("))) (re.++ (re.+ (re.+ (str.to_re ")))"))) (re.++ (re.* (re.+ (str.to_re "**"))) (re.++ (re.+ (re.union (str.to_re "++") (str.to_re ",,"))) (re.++ (re.union (re.* (str.to_re "-")) (re.* (str.to_re "."))) (re.++ (re.* (re.* (str.to_re "///"))) (re.++ (re.* (re.+ (str.to_re ":"))) (re.++ (re.+ (re.+ (str.to_re ";;"))) (re.++ (re.* (re.union (str.to_re "<") (str.to_re "="))) (re.++ (re.+ (re.union (str.to_re ">>>") (str.to_re "???"))) (re.++ (re.* (re.union (str.to_re "@") (str.to_re "[[["))) (re.++ (re.+ (re.union (str.to_re "\\\\") (str.to_re "]"))) (re.++ (re.+ (re.* (str.to_re "^"))) (re.++ (re.+ (re.+ (str.to_re "__"))) (re.++ (re.union (re.+ (str.to_re "``")) (re.+ (str.to_re "{{{"))) (re.++ (re.* (re.union (str.to_re "|||") (str.to_re "}}}"))) (re.++ (re.union (re.+ (str.to_re "~~")) (re.+ (str.to_re "00"))) (re.++ (re.+ (re.* (str.to_re "111"))) (re.++ (re.union (re.* (str.to_re "2")) (re.* (str.to_re "333"))) (re.++ (re.+ (re.+ (str.to_re "44"))) (re.++ (re.* (re.+ (str.to_re "5"))) (re.++ (re.* (re.+ (str.to_re "6"))) (re.++ (re.* (re.+ (str.to_re "7"))) (re.++ (re.union (re.* (str.to_re "8")) (re.* (str.to_re "999"))) (re.++ (re.+ (re.+ (str.to_re "aaa"))) (re.++ (re.* (re.union (str.to_re "bbb") (str.to_re "cc"))) (re.++ (re.+ (re.union (str.to_re "dd") (str.to_re "e"))) (re.++ (re.+ (re.+ (str.to_re "ff"))) (re.++ (re.+ (re.union (str.to_re "ggg") (str.to_re "h"))) (re.++ (re.+ (re.union (str.to_re "i") (str.to_re "jj"))) (re.++ (re.+ (re.* (str.to_re "kkk"))) (re.++ (re.* (re.* (str.to_re "l"))) (re.++ (re.* (re.+ (str.to_re "mm"))) (re.++ (re.+ (re.union (str.to_re "nn") (str.to_re "o"))) (re.++ (re.* (re.+ (str.to_re "pp"))) (re.++ (re.* (re.union (str.to_re "q") (str.to_re "rr"))) (re.++ (re.union (re.+ (str.to_re "sss")) (re.+ (str.to_re "ttt"))) (re.++ (re.union (re.* (str.to_re "uu")) (re.* (str.to_re "vvv"))) (re.++ (re.union (re.* (str.to_re "w")) (re.* (str.to_re "x"))) (re.* (re.+ (str.to_re "y"))))))))))))))))))))))))))))))))))))))))))))))))))))))))))))))))))))))))))))))))))))))))))))))))))))))))))))))))))))))))))))))))))))))))))
(check-sat)